42645
1 0 1 0 1 1 0 1 1 0 1 1 0 1 0 0 0 1 1 1 1 1 1 1 1 1 1 1 0 0 
18 19 21 27 2 11 21 27 22 17 4 17 13 13 19 18 13 20 22 0 18 21 5 24 10 18 27 19 4 2 19 19 4 21 27 19 20 8 24 21 18 8 19 4 8 19 13 21 19 20 24 24 24 21 8 19 11 8 18 25 4 0 7 8 13 11 5 17 19 25 18 11 19 8 23 23 20 23 8 24 10 0 26 25 4 13 19 5 27 7 17 19 25 25 2 13 11 11 0 17 17 21 25 18 4 0 4 24 22 13 19 4 27 11 11 8 11 7 17 8 26 11 17 19 26 21 2 11 26 17 11 24 25 20 23 8 13 13 17 10 11 22 11 11 25 5 24 21 27 25 24 17 23 0 8 11 2 21 13 13 13 27 10 24 5 27 5 4 13 21 5 20 19 10 26 2 0 10 4 10 5 21 2 19 11 8 11 23 0 21 2 21 19 4 7 11 7 21 10 19 